NAME: ACTUAL_TOURS/amz2855
TYPE: TOUR
COMMENT: RouteID_b116e671-63c2-46d6-97a6-fa9a93419a42
DIMENSION: 119
TOUR_SECTION
63
117
105
78
51
102
96
109
20
18
111
44
53
41
84
65
17
3
119
12
113
104
97
79
91
34
70
19
50
69
90
1
27
40
60
37
115
45
48
9
85
108
94
8
71
4
55
10
118
95
22
106
107
76
58
15
114
16
83
101
93
66
59
110
23
39
67
57
103
13
56
112
72
86
100
99
43
26
74
24
33
116
89
75
31
92
38
64
32
77
82
80
7
47
68
29
46
25
42
73
81
98
11
87
28
36
5
54
49
14
88
52
21
2
62
61
30
35
6
-1
EOF
